* Nombre de variables:   22
* Nombre de contraintes: 7
NAME          Pb Solve
ROWS
 N  OBJECTIF
 E  R0000000
 L  R0000001
 L  R0000002
 L  R0000003
 L  R0000004
 E  R0000005
 L  R0000006
COLUMNS
    C0000000  OBJECTIF  100.0000000000
    C0000000  R0000000  1.0000000000
    C0000000  R0000001  0.1666505321
    C0000000  R0000002  0.1428452887
    C0000000  R0000006  0.1666505321
    C0000001  OBJECTIF  1.0000000000
    C0000001  R0000000  -1.0000000000
    C0000001  R0000001  -0.1666505321
    C0000001  R0000002  -0.1428452887
    C0000001  R0000006  -0.1666505321
    C0000002  OBJECTIF  100.0000000000
    C0000002  R0000000  1.0000000000
    C0000002  R0000001  -0.3333256788
    C0000002  R0000002  -0.2857116760
    C0000002  R0000003  -0.2857116760
    C0000002  R0000004  -0.2500003096
    C0000002  R0000006  -0.3333256788
    C0000004  OBJECTIF  100.0000000000
    C0000004  R0000000  1.0000000000
    C0000004  R0000001  0.1666745964
    C0000004  R0000002  0.1428659155
    C0000004  R0000003  0.2857112042
    C0000004  R0000004  0.2499998968
    C0000004  R0000006  0.1666745964
    C0000006  OBJECTIF  100.0000000000
    C0000006  R0000000  1.0000000000
    C0000006  R0000001  -0.0833315573
    C0000006  R0000002  -0.0714280369
    C0000006  R0000003  -0.0714280369
    C0000006  R0000004  -0.0625001806
    C0000006  R0000006  -0.0833315573
    C0000009  OBJECTIF  13000.0000000000
    C0000009  R0000000  1.0000000000
    C0000009  R0000001  -0.3333256788
    C0000009  R0000002  -0.2857116760
    C0000009  R0000003  -0.2857116760
    C0000009  R0000004  -0.2500003096
    C0000009  R0000006  -0.3333256788
    C0000017  R0000001  10000.0000000000
    C0000017  R0000005  1.0000000000
    C0000018  OBJECTIF  0.0000100000
    C0000018  R0000002  10000.0000000000
    C0000018  R0000005  1.0000000000
    C0000019  OBJECTIF  0.0000200000
    C0000019  R0000003  10000.0000000000
    C0000019  R0000005  1.0000000000
    C0000020  OBJECTIF  0.0000300000
    C0000020  R0000004  10000.0000000000
    C0000020  R0000005  1.0000000000
    C0000021  OBJECTIF  0.0000400000
    C0000021  R0000005  1.0000000000
RHS
    RHSVAL    OBJECTIF  -0.000000
    RHSVAL    R0000001  9915.812529338
    RHSVAL    R0000002  9984.974999911
    RHSVAL    R0000003  10122.106477053
    RHSVAL    R0000004  10156.839395367
    RHSVAL    R0000005  1.000000000
    RHSVAL    R0000006  -84.187470662
BOUNDS
 UP BNDVALUE  C0000000  1040.000000000
 UP BNDVALUE  C0000001  960.000000000
 UP BNDVALUE  C0000002  600.000000000
 UP BNDVALUE  C0000004  2000.000000000
 UP BNDVALUE  C0000006  600.000000000
 UP BNDVALUE  C0000009  960.000000000
 BV BNDVALUE  C0000017
 BV BNDVALUE  C0000018
 BV BNDVALUE  C0000019
 BV BNDVALUE  C0000020
 BV BNDVALUE  C0000021

 FX BNDVALUE  C0000003  0.000000000
 FX BNDVALUE  C0000005  0.000000000
 FX BNDVALUE  C0000007  0.000000000
 FX BNDVALUE  C0000008  0.000000000
 FX BNDVALUE  C0000010  0.000000000
 FX BNDVALUE  C0000011  0.000000000
 FX BNDVALUE  C0000012  0.000000000
 FX BNDVALUE  C0000013  0.000000000
 FX BNDVALUE  C0000014  0.000000000
 FX BNDVALUE  C0000015  0.000000000
 FX BNDVALUE  C0000016  0.000000000
ENDATA
